
<<< setup

Tried aggregator 1 time.
LP Presolve eliminated 124 rows and 91 columns.
Reduced LP has 2 rows, 19 columns, and 19 nonzeros.
Presolve time = 0.00 sec. (0.05 ticks)

Iteration log . . .
Iteration:     1   Dual objective     =          1764.562521
main returns 0

<<< main


<<< done

